WARNING: for repeatability, setting FPU to use double precision
Reading from standard input... Use '--help' for help.
============================[ Problem Statistics ]=============================
|                                                                             |
|  Number of variables:          4096                                         |
|  Number of clauses:           30722                                         |
|  Parse time:                   0.01 s                                       |
|  Eliminated clauses:           0.00 Mb                                      |
|  Simplification time:          0.01 s                                       |
|                                                                             |
LBD Based Clause Deletion : 1
Rapid Deletion : 1
Almost Conflict : 1
Anti Exploration : 1
============================[ Search Statistics ]==============================
| Conflicts |          ORIGINAL         |          LEARNT          | Progress |
|           |    Vars  Clauses Literals |    Limit  Clauses Lit/Cl |          |
===============================================================================
===============================================================================
restarts              : 1
conflicts             : 53             (4130 /sec)
decisions             : 154            (0.00 % random) (11999 /sec)
propagations          : 8833           (688250 /sec)
conflict literals     : 2070           (1.43 % deleted)
actual reward         : 0.194734
Memory used           : 9.00 MB
CPU time              : 0.012834 s

SATISFIABLE
